# Objective value = 608639
x0min 29
y0min 20
x1min 32
y1min 20
x2min 20
y2min 20
b2_reduceLturns 0
x4min 20
y4min 20
x5min 20
y5min 152
b5_reduceLturns 1
x6min 29
y6min 20
x7min 20
y7min 20
b7_reduceLturns 0
b9 0
x8_BoundBx_hminM 29
y8_BoundBx_vminM 20
x11min 83
y11LdistBeforeGateOut 0
y11LdistBeforeGateIn 0
b13 0
x12_BoundBx_hminM 29
y12_BoundBx_vminM 20
x15min 71
y15LdistBeforeGateOut 0
y15LdistBeforeGateIn 0
x16min 13
y16min 79
x17min 12
y17min 12
x18min 12
y18min 27
b18_reduceLturns 1
x19min 40
y19min 41
x20min 27
y20min 37
x21min 12
y21min 12
b21_reduceLturns 0
x22_BoundBx_hminM 40
y22_BoundBx_vminM 41
x22_BoundBx_hminP 27
y22_BoundBx_vminP 37
x24min 13
y24min 104
x25min 12
y25min 12
b25_reduceLturns 0
x26min 20
y26min 20
x27min 20
y27min 115
b27_reduceLturns 1
x28min 20
y28min 20
x29min 20
y29min 20
b29_reduceLturns 0
x30min 20
y30min 20
x31min 20
y31min 20
b31_reduceLturns 0
x32min 20
y32min 29
x33min 20
y33min 20
b33_reduceLturns 0
x34min 20
y34min 29
x35min 20
y35min 20
x36min 20
y36min 180
b36_reduceLturns 1
x37min 20
y37min 20
x38min 20
y38min 20
b38_reduceLturns 0
x39min 20
y39min 20
x40min 20
y40min 20
b40_reduceLturns 0
x41min 20
y41min 20
b41_reduceLturns 0
b43 0
x42_BoundBx_hminM 20
y42_BoundBx_vminM 29
x_CntsBoundBx19__boundbx_min 67
y_CntsBoundBx19__boundbx_min 17
y11LdistAfterGateOut 0
y11LdistAfterGateIn 0
b46 0
x45_BoundBx_hminM 20
y45_BoundBx_vminM 29
x_CntsBoundBx20__boundbx_min 67
y_CntsBoundBx20__boundbx_min 17
y15LdistAfterGateOut 0
y15LdistAfterGateIn 0
width 120
ZERO 0
UM 1
RELAXATION 20000
HGRID_OFFSET 0
VGRID_OFFSET 0
height 520
posNWell 228
yNDiffa 40
yNDiffb 192
yPDiffa 258
yPDiffb 480
yGNDb 72
yVDDa 448
x0b 53
x0a 24
y0b 170
y0a 150
b0_endline_v 1
b0_endline_h 0
x0a2 0
x0b2 53
y0a2 146
y0b2 174
x1b 56
x1a 24
y1b 170
y1a 150
b1_endline_v 1
b1_endline_h 0
x1a2 0
x1b2 56
y1a2 146
y1b2 174
x2b 44
x2a 24
y2b 170
y2a 150
x3b 50
x3a 30
y3b 170
y3a 150
b3_1V 1
b3_2V 0
x3g 40
x3gpos 1
y3g 160
y3gpos 4
x4b 44
x4a 24
y4b 302
y4a 282
b4_endline_v 1
b4_endline_h 0
x4a2 0
x4b2 44
y4a2 0
y4b2 306
x5b 44
x5a 24
y5b 302
y5a 150
x6b 53
x6a 24
y6b 302
y6a 282
b6_endline_v 1
b6_endline_h 0
x6a2 0
x6b2 53
y6a2 278
y6b2 306
x7b 44
x7a 24
y7b 302
y7a 282
x8b 47
x8a 30
y8b 170
y8a 153
x8_BoundBx_a 30
x8_BoundBx_b 47
y8_BoundBx_a 153
y8_BoundBx_b 170
y9a 170
x9b 30
x9a 30
y9b 170
b8_BoundBx__1M 1
b8_BoundBx__2M 0
b8_BoundBx__3M 0
x8_BoundBx_hM 6
y8_BoundBx_vM 0
x_CntsBoundBx0_a 30
x_CntsBoundBx0_b 47
y_CntsBoundBx0_a 153
y_CntsBoundBx0_b 170
b10_v 0
b10_h 1
x10a 22
x10b 55
y10a 151
y10b 178
x11b 105
x11a 22
y11a 151
y11b 178
x12b 47
x12a 30
y12b 302
y12a 285
x12_BoundBx_a 30
x12_BoundBx_b 47
y12_BoundBx_a 285
y12_BoundBx_b 302
y13a 302
x13b 30
x13a 30
y13b 302
b12_BoundBx__1M 1
b12_BoundBx__2M 0
b12_BoundBx__3M 0
x12_BoundBx_hM 6
y12_BoundBx_vM 0
b8_BoundBx__12_BoundBx__1 0
b8_BoundBx__12_BoundBx__2 1
b8_BoundBx__12_BoundBx__3 0
x_CntsBoundBx1_a 30
x_CntsBoundBx1_b 47
y_CntsBoundBx1_a 285
y_CntsBoundBx1_b 302
b14_v 1
b14_h 0
x14a 28
x14b 49
y14a 258
y14b 310
x15b 99
x15a 28
y15a 258
y15b 310
b8_BoundBx__15_1_2 1
b8_BoundBx__15_2_2 0
b8_BoundBx__15_3_2 0
b12_BoundBx__11_1_3 1
b12_BoundBx__11_2_3 0
b12_BoundBx__11_3_3 0
x16b 70
x16a 57
y16b 204
y16a 125
b16_endline_v 0
b16_endline_h 1
x16a2 0
x16b2 72
y16a2 0
y16b2 204
x17b 70
x17a 58
y17b 219
y17a 207
b17_endline_v 0
b17_endline_h 1
x17a2 0
x17b2 72
y17a2 0
y17b2 219
x18b 70
x18a 58
y18b 219
y18a 192
b11_17_1_4 0
b11_17_2_4 0
b11_17_3_4 1
b15_17_1_5 1
b15_17_2_5 0
b15_17_3_5 0
x19b 104
x19a 64
y19b 250
y19a 209
b19_endline_v 1
b19_endline_h 0
x19a2 64
x19b2 104
y19a2 205
y19b2 254
b0_19_1 0
b0_19_2 1
b0_19_3 0
b1_19_1 0
b1_19_2 1
b1_19_3 0
b6_19_1 0
b6_19_2 1
b6_19_3 0
x20b 85
x20a 58
y20b 244
y20a 207
b20_endline_v 0
b20_endline_h 1
x20a2 0
x20b2 87
y20a2 0
y20b2 244
x21b 70
x21a 58
y21b 219
y21a 207
b11_20_1_6 0
b11_20_2_6 0
b11_20_3_6 1
b15_20_1_7 1
b15_20_2_7 0
b15_20_3_7 0
x22b 81
x22a 64
y22b 234
y22a 217
x22_BoundBx_a 64
x22_BoundBx_b 81
y22_BoundBx_a 217
y22_BoundBx_b 234
b22_BoundBx__1M 0
b22_BoundBx__2M 1
b22_BoundBx__3M 0
x22_BoundBx_hM 0
y22_BoundBx_vM 6
b8_BoundBx__22_BoundBx__1 0
b8_BoundBx__22_BoundBx__2 1
b8_BoundBx__22_BoundBx__3 0
b12_BoundBx__22_BoundBx__1 0
b12_BoundBx__22_BoundBx__2 0
b12_BoundBx__22_BoundBx__3 1
b22_BoundBx__1P 0
b22_BoundBx__2P 1
b22_BoundBx__3P 0
x22_BoundBx_hP 4
y22_BoundBx_vP 10
x23b 90
x23a 70
y23b 250
y23a 230
b23_1V 1
b23_2V 0
x19_width 40
y19_width 41
x23g 80
x23gpos 2
y23g 240
y23gpos 6
x24b 70
x24a 57
y24b 336
y24a 232
b24_endline_v 0
b24_endline_h 1
x24a2 0
x24b2 72
y24a2 0
y24b2 336
x25b 70
x25a 58
y25b 244
y25a 232
b11_smallTransWidth 1
b17_16_1_8 1
b17_16_2_8 0
b17_16_3_8 0
b11_LshapeBeforeGate 0
b11_applyS2BeforeGate 0
b16_applyExtraExtBeforeGate 0
b11_LshapeBeforeGateOut 0
b11_LshapeBeforeGateIn 0
b11_LshapeAfterGateIn 0
b11_Ushape 0
b11_LshapeAfterGateOut 0
x11_lastDiffEnc_b 55
b15_smallTransWidth 0
b20_24_1_9 0
b20_24_2_9 0
b20_24_3_9 0
b15_LshapeBeforeGate 0
b15_applyS2BeforeGate 0
b24_applyExtraExtBeforeGate 0
b15_LshapeBeforeGateOut 0
b15_LshapeBeforeGateIn 0
b15_LshapeAfterGateIn 0
b15_Ushape 0
b15_LshapeAfterGateOut 0
x15_lastDiffEnc_b 49
b16_15_1_10 1
b16_15_2_10 0
b16_15_3_10 0
b17_11_1_11 1
b17_11_2_11 0
b17_11_3_11 0
b17_15_1_12 1
b17_15_2_12 0
b17_15_3_12 0
b22_BoundBx__11_1_13 1
b22_BoundBx__11_2_13 0
b22_BoundBx__11_3_13 0
b22_BoundBx__15_1_14 1
b22_BoundBx__15_2_14 0
b22_BoundBx__15_3_14 0
b20_11_1_15 1
b20_11_2_15 0
b20_11_3_15 0
b20_15_1_16 1
b20_15_2_16 0
b20_15_3_16 0
b24_11_1_17 1
b24_11_2_17 0
b24_11_3_17 0
b24_11_1_18 1
b24_11_2_18 0
b24_11_3_18 0
x26b 100
x26a 80
y26b 167
y26a 147
x27b 100
x27a 80
y27b 167
y27a 52
xGNDb 100
xGNDa 0
yGNDa 0
b26_endline_v 0
b26_endline_h 1
x26a2 76
x26b2 104
y26a2 0
y26b2 167
b0_26_1 1
b0_26_2 0
b0_26_3 0
b1_26_1 1
b1_26_2 0
b1_26_3 0
b19_26_1 0
b19_26_2 1
b19_26_3 0
b6_26_1 0
b6_26_2 1
b6_26_3 0
x28b 100
x28a 80
y28b 167
y28a 147
b28_endline_v 0
b28_endline_h 1
x28a2 76
x28b2 104
y28a2 0
y28b2 167
b0_28_1 1
b0_28_2 0
b0_28_3 0
b1_28_1 1
b1_28_2 0
b1_28_3 0
b19_28_1 0
b19_28_2 1
b19_28_3 0
b6_28_1 0
b6_28_2 1
b6_28_3 0
x29b 100
x29a 80
y29b 167
y29a 147
x30b 100
x30a 80
y30b 167
y30a 147
b30_endline_v 0
b30_endline_h 1
x30a2 76
x30b2 104
y30a2 0
y30b2 167
b0_30_1 1
b0_30_2 0
b0_30_3 0
b1_30_1 1
b1_30_2 0
b1_30_3 0
b19_30_1 0
b19_30_2 1
b19_30_3 0
b6_30_1 0
b6_30_2 1
b6_30_3 0
x31b 100
x31a 80
y31b 167
y31a 147
x32b 100
x32a 80
y32b 176
y32a 147
b32_endline_v 0
b32_endline_h 1
x32a2 76
x32b2 104
y32a2 0
y32b2 176
b1_32_1 1
b1_32_2 0
b1_32_3 0
b19_32_1 0
b19_32_2 1
b19_32_3 0
b6_32_1 1
b6_32_2 0
b6_32_3 0
x33b 100
x33a 80
y33b 167
y33a 147
x34b 97
x34a 77
y34b 308
y34a 279
b34_endline_v 0
b34_endline_h 1
x34a2 73
x34b2 101
y34a2 279
y34b2 308
b0_34_1 1
b0_34_2 0
b0_34_3 0
b1_34_1 0
b1_34_2 1
b1_34_3 0
b19_34_1 0
b19_34_2 1
b19_34_3 0
b6_34_1 1
b6_34_2 0
b6_34_3 0
x35b 97
x35a 77
y35b 468
y35a 448
b35_endline_v 0
b35_endline_h 1
x35a2 73
x35b2 101
y35a2 448
y35b2 468
b0_35_1 0
b0_35_2 1
b0_35_3 0
b1_35_1 0
b1_35_2 1
b1_35_3 0
b19_35_1 0
b19_35_2 1
b19_35_3 0
b6_35_1 1
b6_35_2 0
b6_35_3 0
x36b 97
x36a 77
y36b 468
y36a 288
x37b 97
x37a 77
y37b 468
y37a 448
b37_endline_v 0
b37_endline_h 1
x37a2 73
x37b2 101
y37a2 448
y37b2 468
b0_37_1 0
b0_37_2 1
b0_37_3 0
b1_37_1 0
b1_37_2 1
b1_37_3 0
b19_37_1 0
b19_37_2 1
b19_37_3 0
b6_37_1 1
b6_37_2 0
b6_37_3 0
x38b 97
x38a 77
y38b 468
y38a 448
x39b 97
x39a 77
y39b 468
y39a 448
x40b 97
x40a 77
y40b 468
y40a 448
xVDDa 0
xVDDb 97
yVDDb 468
b39_endline_v 0
b39_endline_h 1
x39a2 73
x39b2 101
y39a2 448
y39b2 468
b0_39_1 0
b0_39_2 1
b0_39_3 0
b1_39_1 0
b1_39_2 1
b1_39_3 0
b19_39_1 0
b19_39_2 1
b19_39_3 0
b6_39_1 0
b6_39_2 0
b6_39_3 1
x41b 97
x41a 77
y41b 468
y41a 448
x42b 97
x42a 80
y42b 170
y42a 153
x42_BoundBx_a 80
x42_BoundBx_b 97
y42_BoundBx_a 153
y42_BoundBx_b 170
y43a 170
x43b 80
x43a 80
y43b 170
b42_BoundBx__1M 0
b42_BoundBx__2M 1
b42_BoundBx__3M 0
x42_BoundBx_hM 0
y42_BoundBx_vM 6
b22_BoundBx__42_BoundBx__1 0
b22_BoundBx__42_BoundBx__2 1
b22_BoundBx__42_BoundBx__3 0
b12_BoundBx__42_BoundBx__1 0
b12_BoundBx__42_BoundBx__2 1
b12_BoundBx__42_BoundBx__3 0
x_CntsBoundBx19_a 80
x_CntsBoundBx19_b 97
y_CntsBoundBx19_a 153
y_CntsBoundBx19_b 170
b44_v 0
b44_h 1
x44a 70
x44b 105
y44a 151
y44b 178
y_CntsBoundBx19__boundbx_a 153
y_CntsBoundBx19__boundbx_b 170
b11_LshapeAfterGate 0
b11_applyS2AfterGate 0
b16_applyExtraExtAfterGate 0
x45b 97
x45a 80
y45b 302
y45a 285
x45_BoundBx_a 80
x45_BoundBx_b 97
y45_BoundBx_a 285
y45_BoundBx_b 302
y46a 302
x46b 80
x46a 80
y46b 302
b45_BoundBx__1M 0
b45_BoundBx__2M 1
b45_BoundBx__3M 0
x45_BoundBx_hM 0
y45_BoundBx_vM 6
b42_BoundBx__45_BoundBx__1 0
b42_BoundBx__45_BoundBx__2 1
b42_BoundBx__45_BoundBx__3 0
b8_BoundBx__45_BoundBx__1 0
b8_BoundBx__45_BoundBx__2 1
b8_BoundBx__45_BoundBx__3 0
b22_BoundBx__45_BoundBx__1 0
b22_BoundBx__45_BoundBx__2 0
b22_BoundBx__45_BoundBx__3 1
b12_BoundBx__45_BoundBx__1 1
b12_BoundBx__45_BoundBx__2 0
b12_BoundBx__45_BoundBx__3 0
x_CntsBoundBx20_a 80
x_CntsBoundBx20_b 97
y_CntsBoundBx20_a 285
y_CntsBoundBx20_b 302
b47_v 1
b47_h 0
x47a 78
x47b 99
y47a 258
y47b 310
y_CntsBoundBx20__boundbx_a 285
y_CntsBoundBx20__boundbx_b 302
b15_LshapeAfterGate 0
b15_applyS2AfterGate 0
b24_applyExtraExtAfterGate 0
b42_BoundBx__15_1_21 1
b42_BoundBx__15_2_21 0
b42_BoundBx__15_3_21 0
b45_BoundBx__11_1_22 1
b45_BoundBx__11_2_22 0
b45_BoundBx__11_3_22 0
width_gpos 3
+ 0
- 0
12 0
0.500000 0
2.000000 0
20 0
